# Objective value = 3.1298454911790992e+02
x[0] 1
x[1] 0
x[2] 1
x[3] 0
x[4] 1
x[5] 0
x[6] 0
x[7] 0
x[8] 0
x[9] 1
x[10] 1
x[11] 1
x[12] 0
x[13] 1
x[14] 1
x[15] 0
x[16] 1
x[17] 0
x[18] 1
x[19] 1
x[20] 0
x[21] 1
x[22] 1
x[23] 0
x[24] 0
x[25] 1
x[26] 1
x[27] 0
x[28] 0
x[29] 0
x[30] 1
x[31] 0
x[32] 0
x[33] 0
x[34] 0
x[35] 0
x[36] 1
x[37] 1
x[38] 1
x[39] 0
x[40] 1
x[41] 1
x[42] 0
x[43] 1
x[44] 1
x[45] 1
x[46] 0
x[47] 0
x[48] 0
x[49] 1
x[50] 1
x[51] 1
x[52] 1
x[53] 0
x[54] 0
x[55] 1
x[56] 1
x[57] 1
x[58] 0
x[59] 1
x[60] 0
x[61] 0
x[62] 0
x[63] 1
x[64] 1
x[65] 1
x[66] 1
x[67] 1
x[68] 0
x[69] 1
x[70] 1
x[71] 1
x[72] 1
x[73] 0
x[74] 1
x[75] 1
x[76] 1
x[77] 0
x[78] 1
x[79] 0
x[80] 1
x[81] 0
x[82] 1
x[83] 1
x[84] 1
x[85] 0
x[86] 1
x[87] 0
x[88] 1
x[89] 1
x[90] 1
x[91] 0
x[92] 1
x[93] 1
x[94] 1
x[95] 1
x[96] 1
x[97] 0
x[98] 0
x[99] 0
x[100] 0
x[101] 0
x[102] 1
x[103] 0
x[104] 0
x[105] 1
x[106] 1
x[107] 0
x[108] 0
x[109] 1
x[110] 1
x[111] 0
x[112] 0
x[113] 1
x[114] 1
x[115] 0
x[116] 1
x[117] 1
x[118] 0
x[119] 0
x[120] 1
x[121] 1
x[122] 1
x[123] 0
x[124] 1
x[125] 0
x[126] 0
x[127] 1
x[128] 0
x[129] 1
x[130] 1
x[131] 0
x[132] 0
x[133] 0
x[134] 0
x[135] 1
x[136] 1
x[137] 0
x[138] 0
x[139] 1
x[140] 0
x[141] 1
x[142] 0
x[143] 0
x[144] 1
x[145] 0
x[146] 1
x[147] 1
x[148] 0
x[149] 0
x[150] 1
x[151] 0
x[152] 0
x[153] 0
x[154] 1
x[155] 1
x[156] 1
x[157] 0
x[158] 1
x[159] 0
x[160] 1
x[161] 1
x[162] 0
x[163] 1
x[164] 1
x[165] 0
x[166] 0
x[167] 1
x[168] 0
x[169] 0
x[170] 0
x[171] 1
x[172] 1
x[173] 1
x[174] 0
x[175] 0
x[176] 0
x[177] 1
x[178] 1
x[179] 0
x[180] 1
x[181] 1
x[182] 1
x[183] 1
x[184] 0
x[185] 0
x[186] 0
x[187] 1
x[188] 1
x[189] 0
x[190] 1
x[191] 1
x[192] 0
x[193] 1
x[194] 1
x[195] 1
x[196] 0
x[197] 1
x[198] 1
x[199] 1
x[200] 1
x[201] 1
x[202] 1
x[203] 0
x[204] 0
x[205] 0
x[206] 0
x[207] 1
x[208] 0
x[209] 1
x[210] 0
x[211] 1
x[212] 1
x[213] 1
x[214] 0
x[215] 0
x[216] 0
x[217] 1
x[218] 1
x[219] 1
x[220] 1
x[221] 0
x[222] 1
x[223] 0
x[224] 1
x[225] 0
x[226] 0
x[227] 0
x[228] 1
x[229] 1
x[230] 1
x[231] 0
x[232] 0
x[233] 0
x[234] 0
x[235] 1
x[236] 1
x[237] 1
x[238] 1
x[239] 1
x[240] 0
x[241] 0
x[242] 1
x[243] 0
x[244] 0
x[245] 1
x[246] 0
x[247] 0
x[248] 0
x[249] 0
x[250] 0
x[251] 0
x[252] 1
x[253] 0
x[254] 0
x[255] 0
x[256] 0
x[257] 0
x[258] 1
x[259] 1
x[260] 1
x[261] 1
x[262] 1
x[263] 1
x[264] 1
x[265] 1
x[266] 1
x[267] 1
x[268] 0
x[269] 0
x[270] 1
x[271] 0
x[272] 0
x[273] 1
x[274] 1
x[275] 1
x[276] 1
x[277] 0
x[278] 1
x[279] 0
x[280] 1
x[281] 0
x[282] 0
x[283] 0
x[284] 1
x[285] 1
x[286] 0
x[287] 0
x[288] 1
x[289] 0
x[290] 0
x[291] 0
x[292] 1
x[293] 1
x[294] 0
x[295] 1
x[296] 1
x[297] 1
x[298] 1
x[299] 1
x[300] 1
x[301] 1
x[302] 0
x[303] 1
x[304] 1
x[305] 1
x[306] 1
x[307] 0
x[308] 0
x[309] 0
x[310] 1
x[311] 0
x[312] 0
x[313] 1
x[314] 1
x[315] 0
x[316] 0
x[317] 0
x[318] 0
x[319] 0
x[320] 1
x[321] 0
x[322] 0
x[323] 0
x[324] 1
x[325] 1
x[326] 1
x[327] 0
x[328] 0
x[329] 1
x[330] 0
x[331] 0
x[332] 0
x[333] 1
x[334] 1
x[335] 0
x[336] 0
x[337] 0
x[338] 1
x[339] 0
x[340] 0
x[341] 1
x[342] 1
x[343] 1
x[344] 1
x[345] 0
x[346] 0
x[347] 1
x[348] 0
x[349] 0
x[350] 1
x[351] 1
x[352] 0
x[353] 0
x[354] 1
x[355] 0
x[356] 0
x[357] 0
x[358] 0
x[359] 1
x[360] 0
x[361] 1
x[362] 1
x[363] 1
x[364] 1
x[365] 0
x[366] 0
x[367] 0
x[368] 1
x[369] 0
x[370] 1
x[371] 1
x[372] 1
x[373] 0
x[374] 0
x[375] 1
x[376] 0
x[377] 0
x[378] 0
x[379] 0
x[380] 0
x[381] 0
x[382] 0
x[383] 1
x[384] 0
x[385] 0
x[386] 0
x[387] 0
x[388] 0
x[389] 0
x[390] 1
x[391] 1
x[392] 0
x[393] 1
x[394] 1
x[395] 0
x[396] 1
x[397] 0
x[398] 0
x[399] 1
x[400] 1
x[401] 1
x[402] 1
x[403] 1
x[404] 0
x[405] 1
x[406] 1
x[407] 1
x[408] 0
x[409] 0
x[410] 0
x[411] 1
x[412] 1
x[413] 1
x[414] 1
x[415] 0
x[416] 0
x[417] 0
x[418] 0
x[419] 1
x[420] 0
x[421] 0
x[422] 1
x[423] 1
x[424] 0
x[425] 1
x[426] 0
x[427] 0
x[428] 0
x[429] 0
x[430] 0
x[431] 0
x[432] 1
x[433] 0
x[434] 0
x[435] 0
x[436] 1
x[437] 0
x[438] 1
x[439] 1
x[440] 0
x[441] 0
x[442] 0
x[443] 1
x[444] 1
x[445] 0
x[446] 1
x[447] 1
x[448] 1
x[449] 1
x[450] 1
x[451] 1
x[452] 0
x[453] 1
x[454] 0
x[455] 1
x[456] 0
x[457] 1
x[458] 0
x[459] 1
x[460] 0
x[461] 0
x[462] 1
x[463] 1
x[464] 1
x[465] 1
x[466] 1
x[467] 0
x[468] 1
x[469] 0
x[470] 0
x[471] 1
x[472] 0
x[473] 0
x[474] 0
x[475] 0
x[476] 0
x[477] 0
x[478] 0
x[479] 0
x[480] 0
x[481] 0
x[482] 0
x[483] 1
x[484] 0
x[485] 0
x[486] 1
x[487] 0
x[488] 0
x[489] 1
x[490] 0
x[491] 1
x[492] 1
x[493] 1
x[494] 1
x[495] 0
x[496] 0
x[497] 0
x[498] 1
x[499] 1
x[500] 0
x[501] 1
x[502] 1
x[503] 0
x[504] 0
x[505] 0
x[506] 0
x[507] 1
x[508] 0
x[509] 0
x[510] 1
x[511] 1
x[512] 0
x[513] 0
x[514] 0
x[515] 0
x[516] 0
x[517] 0
x[518] 0
x[519] 1
x[520] 1
x[521] 0
x[522] 1
x[523] 1
x[524] 1
x[525] 0
x[526] 0
x[527] 1
x[528] 0
x[529] 1
x[530] 1
x[531] 0
x[532] 1
x[533] 0
x[534] 0
x[535] 1
x[536] 1
x[537] 0
x[538] 0
x[539] 0
x[540] 0
x[541] 0
x[542] 0
x[543] 0
x[544] 0
x[545] 0
x[546] 1
x[547] 1
x[548] 1
x[549] 0
x[550] 0
x[551] 1
x[552] 0
x[553] 0
x[554] 1
x[555] 1
x[556] 1
x[557] 1
x[558] 0
x[559] 1
x[560] 0
x[561] 0
x[562] 1
x[563] 0
x[564] 0
x[565] 1
x[566] 0
x[567] 0
x[568] 0
x[569] 1
x[570] 1
x[571] 1
x[572] 1
x[573] 0
x[574] 1
x[575] 0
x[576] 1
x[577] 1
x[578] 1
x[579] 0
x[580] 1
x[581] 1
x[582] 1
x[583] 0
x[584] 0
x[585] 1
x[586] 0
x[587] 0
x[588] 1
x[589] 0
x[590] 0
x[591] 1
x[592] 0
x[593] 0
x[594] 0
x[595] 0
x[596] 1
x[597] 0
x[598] 0
x[599] 0
x[600] 0
x[601] 0
x[602] 1
x[603] 1
x[604] 1
x[605] 0
x[606] 0
x[607] 0
x[608] 1
x[609] 1
x[610] 0
x[611] 0
x[612] 0
x[613] 1
x[614] 0
x[615] 1
x[616] 1
x[617] 1
x[618] 0
x[619] 1
x[620] 1
x[621] 1
x[622] 0
x[623] 1
x[624] 0
x[625] 0
x[626] 0
x[627] 1
x[628] 1
x[629] 0
x[630] 1
x[631] 0
x[632] 1
x[633] 1
x[634] 0
x[635] 0
x[636] 1
x[637] 0
x[638] 0
x[639] 1
x[640] 1
x[641] 1
x[642] 1
x[643] 1
x[644] 1
x[645] 1
x[646] 1
x[647] 1
x[648] 1
x[649] 0
x[650] 1
x[651] 0
x[652] 1
x[653] 1
x[654] 0
x[655] 0
x[656] 0
x[657] 0
x[658] 1
x[659] 0
x[660] 0
x[661] 0
x[662] 0
x[663] 0
x[664] 0
x[665] 1
x[666] 0
x[667] 0
x[668] 1
x[669] 0
x[670] 1
x[671] 1
x[672] 1
x[673] 1
x[674] 0
x[675] 0
x[676] 1
x[677] 1
x[678] 0
x[679] 0
x[680] 1
x[681] 1
x[682] 0
x[683] 1
x[684] 1
x[685] 0
x[686] 1
x[687] 1
x[688] 1
x[689] 0
x[690] 0
x[691] 1
x[692] 0
x[693] 1
x[694] 1
x[695] 1
x[696] 0
x[697] 1
x[698] 1
x[699] 0
x[700] 0
x[701] 1
x[702] 1
x[703] 0
x[704] 0
x[705] 1
x[706] 1
x[707] 0
x[708] 0
x[709] 0
x[710] 1
x[711] 1
x[712] 1
x[713] 1
x[714] 0
x[715] 0
x[716] 1
x[717] 0
x[718] 1
x[719] 0
x[720] 0
x[721] 1
x[722] 0
x[723] 1
x[724] 1
x[725] 1
x[726] 0
x[727] 0
x[728] 1
x[729] 0
x[730] 0
x[731] 1
x[732] 1
x[733] 1
x[734] 0
x[735] 0
x[736] 1
x[737] 0
x[738] 0
x[739] 1
x[740] 0
x[741] 1
x[742] 1
x[743] 0
x[744] 0
x[745] 1
x[746] 0
x[747] 1
x[748] 0
x[749] 1
x[750] 1
x[751] 0
x[752] 1
x[753] 0
x[754] 0
x[755] 1
x[756] 1
x[757] 1
x[758] 0
x[759] 0
x[760] 0
x[761] 0
x[762] 1
x[763] 1
x[764] 0
x[765] 1
x[766] 0
x[767] 0
x[768] 0
x[769] 0
x[770] 1
x[771] 0
x[772] 1
x[773] 1
x[774] 0
x[775] 0
x[776] 0
x[777] 0
x[778] 0
x[779] 0
x[780] 1
x[781] 0
x[782] 1
x[783] 1
x[784] 0
x[785] 0
x[786] 0
x[787] 1
x[788] 1
x[789] 1
x[790] 0
x[791] 0
x[792] 0
x[793] 1
x[794] 1
x[795] 1
x[796] 1
x[797] 0
x[798] 0
x[799] 1
x[800] 0
x[801] 0
x[802] 0
x[803] 1
x[804] 1
x[805] 1
x[806] 1
x[807] 1
x[808] 0
x[809] 0
x[810] 0
x[811] 1
x[812] 1
x[813] 0
x[814] 1
x[815] 0
x[816] 0
x[817] 0
x[818] 0
x[819] 1
x[820] 1
x[821] 1
x[822] 1
x[823] 1
x[824] 0
x[825] 0
x[826] 1
x[827] 1
x[828] 1
x[829] 0
x[830] 0
x[831] 0
x[832] 1
x[833] 1
x[834] 1
x[835] 0
x[836] 1
x[837] 0
x[838] 0
x[839] 1
x[840] 1
x[841] 0
x[842] 1
x[843] 1
x[844] 1
x[845] 1
x[846] 0
x[847] 1
x[848] 0
x[849] 1
x[850] 0
x[851] 0
x[852] 0
x[853] 1
x[854] 1
x[855] 0
x[856] 0
x[857] 1
x[858] 0
x[859] 0
x[860] 1
x[861] 1
x[862] 0
x[863] 0
x[864] 0
x[865] 1
x[866] 1
x[867] 0
x[868] 1
x[869] 0
x[870] 0
x[871] 1
x[872] 0
x[873] 0
x[874] 1
x[875] 1
x[876] 0
x[877] 1
x[878] 1
x[879] 1
x[880] 1
x[881] 1
x[882] 1
x[883] 0
x[884] 0
x[885] 0
x[886] 0
x[887] 0
x[888] 0
x[889] 0
x[890] 0
x[891] 0
x[892] 0
x[893] 1
x[894] 1
x[895] 0
x[896] 0
x[897] 1
x[898] 0
x[899] 1
x[900] 1
x[901] 0
x[902] 1
x[903] 0
x[904] 0
x[905] 0
x[906] 0
x[907] 0
x[908] 1
x[909] 1
x[910] 1
x[911] 0
x[912] 1
x[913] 0
x[914] 1
x[915] 0
x[916] 1
x[917] 0
x[918] 1
x[919] 0
x[920] 1
x[921] 0
x[922] 1
x[923] 0
x[924] 1
x[925] 0
x[926] 0
x[927] 0
x[928] 0
x[929] 0
x[930] 0
x[931] 1
x[932] 1
x[933] 1
x[934] 0
x[935] 0
x[936] 0
x[937] 1
x[938] 1
x[939] 0
x[940] 1
x[941] 0
x[942] 0
x[943] 0
x[944] 0
x[945] 1
x[946] 0
x[947] 0
x[948] 1
x[949] 0
x[950] 0
x[951] 0
x[952] 0
x[953] 1
x[954] 0
x[955] 1
x[956] 1
x[957] 0
x[958] 0
x[959] 1
x[960] 1
x[961] 0
x[962] 0
x[963] 0
x[964] 0
x[965] 0
x[966] 0
x[967] 1
x[968] 1
x[969] 1
x[970] 0
x[971] 0
x[972] 1
x[973] 0
x[974] 1
x[975] 1
x[976] 1
x[977] 0
x[978] 0
x[979] 0
x[980] 1
x[981] 0
x[982] 0
x[983] 1
x[984] 1
x[985] 0
x[986] 1
x[987] 0
x[988] 0
x[989] 1
x[990] 0
x[991] 1
x[992] 0
x[993] 1
x[994] 0
x[995] 1
x[996] 0
x[997] 1
x[998] 1
x[999] 1
